NAME : superperm 5
TYPE : TSP
DIMENSION : 121
EDGE_WEIGHT_TYPE : EXPLICIT
EDGE_WEIGHT_FORMAT : UPPER_ROW
NODE_COORD_TYPE : NO_COORDS
DISPLAY_DATA_TYPE : NO_DISPLAY
EDGE_WEIGHT_SECTION :
0 0 0 0 0 0 0 0 0 0 0 0 0 0 0 0 0 0 0 0 0 0 0 0 0 0 0 0 0 0 0 0 0 0 0 0 0 0 0 0 0 0 0 0 0 0 0 0 0 0 0 0 0 0 0 0 0 0 0 0 0 0 0 0 0 0 0 0 0 0 0 0 0 0 0 0 0 0 0 0 0 0 0 0 0 0 0 0 0 0 0 0 0 0 0 0 0 0 0 0 0 0 0 0 0 0 0 0 0 0 0 0 0 0 0 0 0 0 0 0
5 5 5 5 5 5 5 5 5 5 5 5 5 5 5 5 5 5 5 5 5 5 5 5 5 5 5 5 5 5 5 5 1 5 4 5 5 5 4 5 4 5 5 5 4 5 4 5 5 5 5 5 5 5 5 5 4 5 4 5 5 5 4 2 2 5 5 5 4 3 4 5 5 5 5 5 5 5 5 5 4 5 4 5 5 5 4 3 4 2 3 3 3 3 3 1 4 4 4 4 4 4 4 4 4 4 4 4 4 4 4 3 4 2 4 4 4 3 4
5 5 5 5 5 5 5 5 5 5 5 5 5 5 5 5 5 5 5 5 5 5 5 5 5 5 5 5 5 5 5 4 5 1 5 5 5 4 5 4 5 5 5 4 5 4 5 5 5 5 5 5 5 5 5 4 5 4 5 5 5 4 3 4 5 5 5 4 2 2 1 4 4 4 4 4 4 4 4 4 4 4 4 4 4 4 3 4 2 4 4 4 3 4 5 5 5 5 5 5 5 5 5 4 5 4 5 5 5 4 3 4 2 3 3 3 3 3
5 5 5 5 5 5 5 5 5 5 5 5 5 5 5 5 5 5 5 5 5 5 5 5 5 5 5 5 5 5 4 5 4 5 5 5 1 5 4 5 5 5 4 5 4 5 5 5 5 5 5 5 5 5 4 5 4 5 5 5 4 3 4 2 3 3 3 3 3 5 5 5 5 5 5 5 5 5 4 5 4 5 5 5 4 2 2 5 5 5 4 3 4 4 1 4 4 4 4 4 4 4 4 4 4 2 4 4 4 3 4 4 4 4 4 3 4
5 5 5 5 5 5 5 5 5 5 5 5 5 5 5 5 5 5 5 5 5 5 5 5 5 5 5 5 5 4 5 4 5 5 5 4 5 1 5 5 5 4 5 4 1 4 4 4 4 4 4 4 4 4 4 4 4 4 4 4 3 4 2 4 4 4 3 4 5 5 5 5 5 5 5 5 5 4 5 4 5 5 5 4 3 4 5 5 5 4 2 2 5 5 5 5 5 5 5 5 5 4 5 4 2 3 3 3 3 3 5 5 5 4 3 4
5 5 5 5 5 5 5 5 5 5 5 5 5 5 5 5 5 5 5 5 5 5 5 5 5 5 5 5 4 5 4 5 5 5 4 5 4 5 5 5 1 5 4 5 5 5 5 5 5 5 5 5 4 5 4 2 3 3 3 3 3 5 5 5 4 3 4 4 1 4 4 4 4 4 4 4 4 4 4 2 4 4 4 3 4 4 4 4 4 3 4 5 5 5 5 5 5 5 5 5 4 5 4 5 5 5 4 2 2 5 5 5 4 3 4
5 5 5 5 5 5 5 5 5 5 5 5 5 5 5 5 5 5 5 5 5 5 5 5 5 5 5 4 5 4 5 5 5 4 5 4 5 5 5 4 5 1 4 1 4 4 4 4 4 4 4 4 4 4 2 4 4 4 3 4 4 4 4 4 3 4 5 5 5 5 5 5 5 5 5 4 5 4 2 3 3 3 3 3 5 5 5 4 3 4 5 5 5 5 5 5 5 5 5 4 5 4 5 5 5 4 3 4 5 5 5 4 2 2
5 5 5 5 5 5 5 5 5 5 5 5 5 5 5 5 5 5 5 5 5 5 5 5 5 5 4 5 4 5 5 5 4 2 2 5 5 5 4 3 4 5 5 5 5 5 5 5 5 5 1 5 4 5 5 5 4 5 4 5 5 5 4 5 4 5 5 5 5 5 5 5 5 5 4 3 4 5 5 5 4 5 4 3 2 3 3 3 3 4 4 1 4 4 4 4 4 4 4 3 4 4 4 4 4 4 4 4 2 3 4 4 4
5 5 5 5 5 5 5 5 5 5 5 5 5 5 5 5 5 5 5 5 5 5 5 5 5 4 5 4 5 5 5 4 3 4 5 5 5 4 2 2 5 5 5 5 5 5 5 5 5 4 5 1 5 5 5 4 5 4 5 5 5 4 5 4 4 4 1 4 4 4 4 4 4 4 3 4 4 4 4 4 4 4 4 2 3 4 4 4 5 5 5 5 5 5 5 5 5 4 3 4 5 5 5 4 5 4 3 2 3 3 3 3
5 5 5 5 5 5 5 5 5 5 5 5 5 5 5 5 5 5 5 5 5 5 5 5 4 5 4 5 5 5 4 3 4 2 3 3 3 3 3 5 5 5 5 5 5 5 5 5 4 5 4 5 5 5 1 5 4 5 5 5 4 5 4 5 5 5 5 5 5 5 5 5 4 2 2 5 5 5 4 5 4 5 5 3 4 5 4 4 4 4 1 4 4 2 4 4 4 3 4 4 4 4 4 4 4 4 4 3 4 4 4
5 5 5 5 5 5 5 5 5 5 5 5 5 5 1 4 4 4 4 4 4 4 4 4 4 4 4 4 4 4 3 4 2 4 4 4 3 4 5 5 5 5 5 5 5 5 5 4 5 4 5 5 5 4 5 1 5 5 5 4 5 4 5 5 5 5 5 5 5 5 5 4 3 4 5 5 5 4 5 4 5 5 2 2 5 4 5 5 5 5 5 5 2 3 3 3 3 3 5 5 5 4 5 4 5 5 3 4 5 4
5 5 5 5 5 5 5 5 5 5 5 5 5 5 5 5 5 5 5 5 5 5 4 5 4 2 3 3 3 3 3 5 5 5 4 3 4 5 5 5 5 5 5 5 5 5 4 5 4 5 5 5 4 5 4 5 5 5 1 5 4 4 4 4 1 4 4 2 4 4 4 3 4 4 4 4 4 4 4 4 4 3 4 4 4 5 5 5 5 5 5 5 5 5 4 2 2 5 5 5 4 5 4 5 5 3 4 5 4
5 5 5 5 5 5 5 5 5 5 5 5 4 1 4 4 4 4 4 4 4 4 4 4 2 4 4 4 3 4 4 4 4 4 3 4 5 5 5 5 5 5 5 5 5 4 5 4 5 5 5 4 5 4 5 5 5 4 5 1 5 5 5 5 5 5 2 3 3 3 3 3 5 5 5 4 5 4 5 5 3 4 5 4 5 5 5 5 5 5 5 5 5 4 3 4 5 5 5 4 5 4 5 5 2 2 5 4
5 5 5 5 5 5 5 5 5 5 5 5 5 5 5 5 5 5 5 5 4 2 2 5 5 5 4 5 4 5 5 3 4 5 4 5 5 5 5 5 5 5 5 5 4 3 4 5 5 5 4 5 4 3 2 3 3 3 3 5 5 5 5 5 5 5 5 5 1 5 4 5 5 5 4 5 4 5 5 5 4 5 4 4 4 4 4 1 4 4 4 3 4 4 4 4 2 3 4 4 4 4 4 4 4 4 4
5 5 5 5 5 5 5 5 5 5 5 5 5 5 5 5 5 5 5 4 3 4 5 5 5 4 5 4 5 5 2 2 5 4 4 4 1 4 4 4 4 4 4 4 3 4 4 4 4 4 4 4 4 2 3 4 4 4 5 5 5 5 5 5 5 5 5 4 5 1 5 5 5 4 5 4 5 5 5 4 5 4 5 5 5 5 5 5 5 5 3 4 5 4 3 2 3 3 3 3 5 5 5 4 5 4
5 5 5 5 5 5 5 5 5 5 5 5 5 5 5 5 5 5 4 3 4 5 5 5 4 5 4 3 2 3 3 3 3 5 5 5 5 5 5 5 5 5 4 2 2 5 5 5 4 5 4 5 5 3 4 5 4 5 5 5 5 5 5 5 5 5 4 5 4 5 5 5 1 5 4 5 5 5 4 5 4 4 4 4 4 4 1 4 2 3 4 4 4 4 4 3 4 4 4 4 4 4 4 4 4
5 5 5 5 5 5 5 5 4 4 1 4 4 4 4 4 4 4 3 4 4 4 4 4 4 4 4 2 3 4 4 4 5 5 5 5 5 5 5 5 5 4 3 4 5 5 5 4 5 4 5 5 2 2 5 4 5 5 5 5 5 5 5 5 5 4 5 4 5 5 5 4 5 1 5 5 5 4 5 4 5 5 5 5 5 5 3 2 3 3 3 3 5 5 3 4 5 4 5 5 5 4 5 4
5 5 5 5 5 5 5 5 5 5 5 5 5 2 3 3 3 3 3 5 5 5 4 5 4 5 5 3 4 5 4 4 4 4 1 4 4 2 4 4 4 3 4 4 4 4 4 4 4 4 4 3 4 4 4 5 5 5 5 5 5 5 5 5 4 5 4 5 5 5 4 5 4 5 5 5 1 5 4 5 5 5 5 5 5 5 5 2 2 5 4 5 5 3 4 5 4 5 5 5 4 5 4
5 5 5 5 5 5 4 4 4 1 4 4 2 4 4 4 3 4 4 4 4 4 4 4 4 4 3 4 4 4 5 5 5 5 5 5 2 3 3 3 3 3 5 5 5 4 5 4 5 5 3 4 5 4 5 5 5 5 5 5 5 5 5 4 5 4 5 5 5 4 5 4 5 5 5 4 5 1 5 5 5 5 5 5 5 5 3 4 5 4 5 5 2 2 5 4 5 5 5 4 5 4
5 5 5 5 5 5 5 5 5 5 5 5 5 2 2 5 4 5 5 3 4 5 4 5 5 5 4 5 4 5 5 5 5 5 5 5 5 3 4 5 4 3 2 3 3 3 3 5 5 5 4 5 4 4 4 4 4 1 4 4 4 3 4 4 4 4 2 3 4 4 4 4 4 4 4 4 4 5 5 5 5 5 5 5 5 5 1 5 4 5 5 5 4 5 4 5 5 5 4 5 4
5 5 5 5 5 5 5 5 5 5 5 5 3 4 5 4 5 5 2 2 5 4 5 5 5 4 5 4 4 4 4 4 1 4 4 4 3 4 4 4 4 2 3 4 4 4 4 4 4 4 4 4 5 5 5 5 5 5 5 5 3 4 5 4 3 2 3 3 3 3 5 5 5 4 5 4 5 5 5 5 5 5 5 5 5 4 5 1 5 5 5 4 5 4 5 5 5 4 5 4
5 5 5 5 5 5 5 5 5 5 5 3 4 5 4 3 2 3 3 3 3 5 5 5 4 5 4 5 5 5 5 5 5 5 5 2 2 5 4 5 5 3 4 5 4 5 5 5 4 5 4 4 4 4 4 4 1 4 2 3 4 4 4 4 4 3 4 4 4 4 4 4 4 4 4 5 5 5 5 5 5 5 5 5 4 5 4 5 5 5 1 5 4 5 5 5 4 5 4
5 5 4 4 4 4 1 4 4 4 3 4 4 4 4 2 3 4 4 4 4 4 4 4 4 4 5 5 5 5 5 5 5 5 3 4 5 4 5 5 2 2 5 4 5 5 5 4 5 4 5 5 5 5 5 5 3 2 3 3 3 3 5 5 3 4 5 4 5 5 5 4 5 4 5 5 5 5 5 5 5 5 5 4 5 4 5 5 5 4 5 1 5 5 5 4 5 4
5 5 5 5 5 5 5 3 2 3 3 3 3 5 5 3 4 5 4 5 5 5 4 5 4 4 4 4 4 4 1 4 2 3 4 4 4 4 4 3 4 4 4 4 4 4 4 4 4 5 5 5 5 5 5 5 5 2 2 5 4 5 5 3 4 5 4 5 5 5 4 5 4 5 5 5 5 5 5 5 5 5 4 5 4 5 5 5 4 5 4 5 5 5 1 5 4
4 4 4 4 4 1 4 2 3 4 4 4 4 4 3 4 4 4 4 4 4 4 4 4 5 5 5 5 5 5 3 2 3 3 3 3 5 5 3 4 5 4 5 5 5 4 5 4 5 5 5 5 5 5 5 5 3 4 5 4 5 5 2 2 5 4 5 5 5 4 5 4 5 5 5 5 5 5 5 5 5 4 5 4 5 5 5 4 5 4 5 5 5 4 5 1
5 5 5 5 5 5 5 5 5 5 5 5 5 5 5 5 5 5 5 5 5 5 5 5 5 5 4 5 4 5 5 5 5 5 5 5 4 5 5 2 2 5 4 5 5 4 3 5 5 5 4 5 4 5 5 5 5 5 5 5 4 5 5 4 3 3 3 2 3 3 3 4 4 4 4 4 4 1 4 4 4 4 4 4 4 4 4 4 3 4 4 2 4 4 3
5 5 5 5 5 5 5 5 5 5 5 5 5 5 5 5 5 5 5 5 5 5 5 5 5 4 5 4 5 5 5 5 5 5 5 4 5 5 4 3 5 4 5 5 2 2 4 4 4 4 4 4 1 4 4 4 4 4 4 4 4 4 4 3 4 4 2 4 4 3 5 5 5 4 5 4 5 5 5 5 5 5 5 4 5 5 4 3 3 3 2 3 3 3
5 5 5 5 5 5 5 5 5 5 5 5 5 5 5 5 5 5 5 5 5 5 5 5 4 5 4 5 5 5 5 5 5 5 4 5 5 4 3 3 3 2 3 3 3 5 5 5 4 5 4 5 5 5 5 5 5 5 4 5 5 2 2 5 4 5 5 4 3 4 4 4 4 4 4 4 1 4 4 4 4 4 4 2 4 4 3 4 4 4 4 4 3
5 5 5 5 5 5 5 5 5 5 5 5 5 5 5 5 5 5 5 5 4 4 4 4 4 4 1 4 4 4 4 4 4 4 4 4 4 3 4 4 2 4 4 3 5 5 5 4 5 4 5 5 5 5 5 5 5 4 5 5 4 3 5 4 5 5 2 2 5 5 5 4 5 4 5 5 5 5 5 5 3 3 2 3 3 3 5 4 5 5 4 3
5 5 5 5 5 5 5 5 5 5 5 5 5 5 5 5 5 5 5 5 5 5 4 5 4 5 5 5 5 5 5 3 3 2 3 3 3 5 4 5 5 4 3 4 4 4 4 4 4 4 1 4 4 4 4 4 4 2 4 4 3 4 4 4 4 4 3 5 5 5 4 5 4 5 5 5 5 5 5 5 4 5 5 2 2 5 4 5 5 4 3
5 5 5 5 5 5 5 5 5 5 5 5 5 5 5 5 5 5 4 4 4 4 4 4 4 1 4 4 4 4 4 4 2 4 4 3 4 4 4 4 4 3 5 5 5 4 5 4 5 5 5 5 5 5 3 3 2 3 3 3 5 4 5 5 4 3 5 5 5 4 5 4 5 5 5 5 5 5 5 4 5 5 4 3 5 4 5 5 2 2
5 5 5 5 5 5 5 5 5 5 5 5 5 5 5 5 5 5 5 5 1 5 4 5 5 5 5 5 5 5 4 5 5 4 5 5 4 5 5 4 5 5 5 5 4 3 4 5 5 5 5 5 5 5 4 5 5 4 5 3 3 3 2 3 3 4 4 4 4 3 4 4 4 1 4 4 4 4 4 4 4 4 4 3 4 4 2 4 4
5 5 5 5 5 5 5 5 5 5 5 5 5 5 5 5 5 5 5 4 5 1 5 5 5 5 5 5 5 4 5 5 4 5 5 4 5 5 4 5 4 4 4 4 3 4 4 4 1 4 4 4 4 4 4 4 4 4 3 4 4 2 4 4 5 5 5 4 3 4 5 5 5 5 5 5 5 4 5 5 4 5 3 3 3 2 3 3
5 5 5 5 5 5 5 5 5 5 5 5 5 5 5 5 5 5 4 5 4 5 5 5 5 5 5 5 1 5 5 4 5 5 4 5 5 4 5 5 5 5 4 2 2 5 5 5 5 5 5 5 4 5 5 4 5 3 4 5 5 4 5 2 4 4 4 3 4 4 4 4 1 4 4 4 4 4 4 4 4 3 4 4 4 4 4
5 5 5 5 5 5 5 5 5 5 5 5 5 5 5 5 5 4 5 4 5 5 5 5 5 5 5 4 5 5 1 5 5 4 5 5 4 5 5 5 5 4 3 4 5 5 5 5 5 5 5 4 5 5 4 5 2 2 5 5 4 5 2 3 3 3 3 3 5 5 5 5 5 5 5 4 5 5 4 5 3 4 5 5 4 5
5 5 5 5 5 5 5 5 5 5 5 5 5 5 5 5 4 5 4 5 5 5 5 5 5 5 4 5 5 4 5 5 1 5 5 4 5 2 4 4 4 3 4 4 4 4 1 4 4 4 4 4 4 4 4 3 4 4 4 4 4 5 5 5 4 2 2 5 5 5 5 5 5 5 4 5 5 4 5 3 4 5 5 4 5
5 5 5 5 5 5 5 5 5 5 5 5 5 5 5 4 5 4 5 5 5 5 5 5 5 4 5 5 4 5 5 4 5 5 1 5 2 3 3 3 3 3 5 5 5 5 5 5 5 4 5 5 4 5 3 4 5 5 4 5 5 5 5 4 3 4 5 5 5 5 5 5 5 4 5 5 4 5 2 2 5 5 4 5
5 5 5 5 5 5 5 5 5 5 5 5 5 5 4 3 4 5 5 5 5 5 5 5 4 5 5 4 5 3 3 3 2 3 3 5 5 5 1 5 4 5 5 5 5 5 5 5 4 5 5 4 5 5 4 5 5 4 5 4 4 3 4 4 4 4 4 4 4 1 4 3 4 4 2 4 4 4 4 4 4 4 4
5 5 5 5 5 5 5 5 5 5 4 4 4 4 3 4 4 4 1 4 4 4 4 4 4 4 4 4 3 4 4 2 4 4 5 5 5 4 5 1 5 5 5 5 5 5 5 4 5 5 4 5 5 4 5 5 4 5 5 5 3 4 5 4 5 5 5 5 5 5 3 3 3 2 3 3 5 4 5 5 4 5
5 5 5 5 5 5 5 5 5 5 5 5 4 2 2 5 5 5 5 5 5 5 4 5 5 4 5 3 4 5 5 4 5 5 5 5 4 5 4 5 5 5 5 5 5 5 1 5 5 4 5 5 4 5 5 4 5 4 2 3 4 4 4 4 4 4 4 4 1 3 4 4 4 4 4 4 4 4 4 4 4
5 5 5 5 5 5 5 5 5 5 5 4 3 4 5 5 5 5 5 5 5 4 5 5 4 5 2 2 5 5 4 5 5 5 5 4 5 4 5 5 5 5 5 5 5 4 5 5 1 5 5 4 5 5 4 5 3 2 3 3 3 3 5 5 5 5 5 5 3 4 5 5 4 5 5 4 5 5 4 5
5 5 5 5 5 5 5 2 4 4 4 3 4 4 4 4 1 4 4 4 4 4 4 4 4 3 4 4 4 4 4 5 5 5 4 5 4 5 5 5 5 5 5 5 4 5 5 4 5 5 1 5 5 4 5 5 5 2 2 5 4 5 5 5 5 5 5 3 4 5 5 4 5 5 4 5 5 4 5
5 5 5 5 5 5 2 3 3 3 3 3 5 5 5 5 5 5 5 4 5 5 4 5 3 4 5 5 4 5 5 5 5 4 5 4 5 5 5 5 5 5 5 4 5 5 4 5 5 4 5 5 1 5 5 5 3 4 5 4 5 5 5 5 5 5 2 2 5 5 4 5 5 4 5 5 4 5
5 5 5 5 5 5 5 3 4 5 4 5 5 5 5 5 5 3 3 3 2 3 3 5 4 5 5 4 5 4 4 3 4 4 4 4 4 4 4 1 4 3 4 4 2 4 4 4 4 4 4 4 4 5 5 5 1 5 4 5 5 5 5 5 5 5 4 5 5 4 5 5 4 5 5 4 5
5 5 5 5 4 4 3 4 4 4 4 4 4 4 1 4 3 4 4 2 4 4 4 4 4 4 4 4 5 5 3 4 5 4 5 5 5 5 5 5 3 3 3 2 3 3 5 4 5 5 4 5 5 5 5 4 5 1 5 5 5 5 5 5 5 4 5 5 4 5 5 4 5 5 4 5
5 5 5 5 5 2 2 5 4 5 5 5 5 5 5 3 4 5 5 4 5 5 4 5 5 4 5 4 2 3 4 4 4 4 4 4 4 4 1 3 4 4 4 4 4 4 4 4 4 4 4 5 5 5 4 5 4 5 5 5 5 5 5 5 1 5 5 4 5 5 4 5 5 4 5
5 5 5 5 3 4 5 4 5 5 5 5 5 5 2 2 5 5 4 5 5 4 5 5 4 5 3 2 3 3 3 3 5 5 5 5 5 5 3 4 5 5 4 5 5 4 5 5 4 5 5 5 5 4 5 4 5 5 5 5 5 5 5 4 5 5 1 5 5 4 5 5 4 5
5 4 2 3 4 4 4 4 4 4 4 4 1 3 4 4 4 4 4 4 4 4 4 4 4 5 5 2 2 5 4 5 5 5 5 5 5 3 4 5 5 4 5 5 4 5 5 4 5 5 5 5 4 5 4 5 5 5 5 5 5 5 4 5 5 4 5 5 1 5 5 4 5
3 2 3 3 3 3 5 5 5 5 5 5 3 4 5 5 4 5 5 4 5 5 4 5 5 5 3 4 5 4 5 5 5 5 5 5 2 2 5 5 4 5 5 4 5 5 4 5 5 5 5 4 5 4 5 5 5 5 5 5 5 4 5 5 4 5 5 4 5 5 1 5
5 5 5 5 5 5 5 5 5 5 5 5 5 5 5 5 5 5 5 5 5 5 5 5 4 5 5 4 5 5 4 5 5 4 3 5 5 5 5 5 5 3 3 3 3 2 3 4 4 4 4 4 4 4 4 4 4 4 3 1 4 4 4 4 4 4 4 4 3 2 4
5 5 5 5 5 5 5 5 5 5 5 5 5 5 5 5 5 5 5 5 5 5 4 4 4 4 4 4 4 4 4 4 4 3 1 4 4 4 4 4 4 4 4 3 2 4 5 4 5 5 4 5 5 4 5 5 4 3 5 5 5 5 5 5 3 3 3 3 2 3
5 5 5 5 5 5 5 5 5 5 5 5 5 5 5 5 5 5 5 5 5 5 4 5 5 4 5 5 4 5 5 2 2 5 5 5 5 5 5 4 5 4 3 5 5 4 4 4 4 4 4 4 4 2 4 4 3 4 1 4 4 4 4 4 4 4 3 4 4
5 5 5 5 5 5 5 5 5 5 5 5 5 5 5 5 5 5 5 5 5 4 5 5 4 5 5 4 5 5 4 3 5 5 5 5 5 5 4 5 2 2 5 5 5 4 5 5 4 5 3 3 2 3 3 3 5 5 5 5 5 5 4 5 4 3 5 5
5 5 5 5 5 5 5 5 5 5 5 5 5 5 5 5 5 5 5 4 4 4 4 4 4 4 4 2 4 4 3 4 1 4 4 4 4 4 4 4 3 4 4 5 4 5 5 4 5 5 4 5 5 2 2 5 5 5 5 5 5 4 5 4 3 5 5
5 5 5 5 5 5 5 5 5 5 5 5 5 5 5 5 5 5 5 4 5 5 4 5 3 3 2 3 3 3 5 5 5 5 5 5 4 5 4 3 5 5 5 4 5 5 4 5 5 4 5 5 4 3 5 5 5 5 5 5 4 5 2 2 5 5
5 5 5 5 5 5 5 5 5 5 5 5 5 5 5 5 5 5 4 5 5 4 3 5 4 5 5 4 5 5 5 5 5 5 5 3 3 3 3 3 2 4 4 4 4 4 3 4 4 4 4 4 4 4 4 1 4 4 4 4 3 4 4 4 2
5 5 5 5 5 5 5 5 5 5 5 5 5 5 5 5 4 4 4 4 4 3 4 4 4 4 4 4 4 4 1 4 4 4 4 3 4 4 4 2 5 4 5 5 4 3 5 4 5 5 4 5 5 5 5 5 5 5 3 3 3 3 3 2
5 5 5 5 5 5 5 5 5 5 5 5 5 5 5 5 4 5 5 2 2 5 4 5 5 4 5 5 5 5 5 5 5 4 3 4 5 5 5 4 4 2 4 4 3 4 4 4 4 4 4 4 4 4 1 4 4 4 3 4 4 4 4
5 5 5 5 5 5 5 5 5 5 5 5 5 5 5 4 5 5 4 3 5 4 5 5 4 5 5 5 5 5 5 5 2 2 4 5 5 5 3 3 2 3 3 3 5 4 5 5 4 5 5 5 5 5 5 5 4 3 4 5 5 5
5 5 5 5 5 5 5 5 5 5 5 5 5 4 4 2 4 4 3 4 4 4 4 4 4 4 4 4 1 4 4 4 3 4 4 4 4 5 4 5 5 2 2 5 4 5 5 4 5 5 5 5 5 5 5 4 3 4 5 5 5
5 5 5 5 5 5 5 5 5 5 5 5 3 3 2 3 3 3 5 4 5 5 4 5 5 5 5 5 5 5 4 3 4 5 5 5 5 4 5 5 4 3 5 4 5 5 4 5 5 5 5 5 5 5 2 2 4 5 5 5
5 5 5 5 5 5 5 5 5 5 5 5 1 5 5 4 5 5 4 5 5 4 5 5 5 5 5 5 5 4 5 4 5 5 5 3 4 4 4 4 4 3 4 4 2 4 4 4 4 4 4 1 4 4 4 4 4 4 4
5 5 5 5 5 5 5 5 5 5 5 4 5 5 1 5 5 4 5 5 4 5 5 5 5 5 5 5 4 5 4 5 5 5 3 4 5 5 4 5 3 3 3 2 3 3 5 5 5 5 5 5 4 5 4 5 5 5
5 5 5 5 5 5 5 5 5 5 4 5 5 4 5 5 1 5 5 4 5 5 5 5 5 5 5 4 5 4 5 5 5 3 4 4 2 4 4 3 4 4 4 4 4 4 4 4 4 4 1 4 4 4 4 4 4
5 5 5 5 5 5 5 5 5 4 5 5 4 5 5 4 5 5 1 5 5 5 5 5 5 5 4 5 4 5 5 5 3 3 3 2 3 3 3 4 5 5 4 5 5 5 5 5 5 5 4 5 4 5 5 5
5 5 5 5 5 5 5 5 4 5 5 4 5 5 4 5 5 4 5 5 5 5 5 5 5 1 5 4 5 5 5 2 2 5 5 4 5 3 4 5 5 4 5 5 5 5 5 5 5 4 5 4 5 5 5
5 5 5 5 5 5 5 4 5 5 4 5 5 4 5 5 4 5 5 5 5 5 5 5 4 5 1 5 5 5 3 4 5 5 4 5 2 2 5 5 4 5 5 5 5 5 5 5 4 5 4 5 5 5
5 5 5 5 5 3 4 4 4 4 4 3 4 4 2 4 4 4 4 4 4 1 4 4 4 4 4 4 4 5 1 5 5 4 5 5 4 5 5 4 5 5 5 5 5 5 5 4 5 4 5 5 5
5 5 5 5 3 4 5 5 4 5 3 3 3 2 3 3 5 5 5 5 5 5 4 5 4 5 5 5 5 4 5 5 1 5 5 4 5 5 4 5 5 5 5 5 5 5 4 5 4 5 5 5
5 5 5 3 4 4 2 4 4 3 4 4 4 4 4 4 4 4 4 4 1 4 4 4 4 4 4 5 4 5 5 4 5 5 1 5 5 4 5 5 5 5 5 5 5 4 5 4 5 5 5
5 5 3 3 3 2 3 3 3 4 5 5 4 5 5 5 5 5 5 5 4 5 4 5 5 5 5 4 5 5 4 5 5 4 5 5 1 5 5 5 5 5 5 5 4 5 4 5 5 5
5 2 2 5 5 4 5 3 4 5 5 4 5 5 5 5 5 5 5 4 5 4 5 5 5 5 4 5 5 4 5 5 4 5 5 4 5 5 5 5 5 5 5 1 5 4 5 5 5
3 4 5 5 4 5 2 2 5 5 4 5 5 5 5 5 5 5 4 5 4 5 5 5 5 4 5 5 4 5 5 4 5 5 4 5 5 5 5 5 5 5 4 5 1 5 5 5
5 5 5 5 5 5 5 5 5 5 5 5 5 5 5 5 5 5 5 5 5 5 5 4 4 4 4 4 4 4 4 4 3 4 4 4 4 4 3 2 4 1 4 4 4 4 4
5 5 5 5 5 5 5 5 5 5 5 5 5 5 5 5 5 5 5 5 5 5 4 5 4 5 5 5 4 5 4 3 5 5 3 3 3 3 2 3 5 5 5 5 5 5
5 5 5 5 5 5 5 5 5 5 5 5 5 5 5 5 5 5 5 5 5 4 4 4 4 4 4 4 4 4 3 2 4 4 4 4 3 4 4 4 1 4 4 4 4
5 5 5 5 5 5 5 5 5 5 5 5 5 5 5 5 5 5 5 5 4 5 4 5 5 5 3 3 3 3 2 3 4 5 4 3 5 5 5 5 5 5 5 5
5 5 5 5 5 5 5 5 5 5 5 5 5 5 5 5 5 5 5 4 5 4 5 5 5 4 5 2 2 5 5 4 5 4 3 5 5 5 5 5 5 5 5
5 5 5 5 5 5 5 5 5 5 5 5 5 5 5 5 5 5 4 5 4 5 5 5 4 5 4 3 5 5 4 5 2 2 5 5 5 5 5 5 5 5
5 5 5 5 5 5 5 5 5 5 5 5 5 5 5 5 5 4 4 4 3 4 4 4 4 4 4 4 4 4 3 4 4 4 2 4 4 1 4 4 4
5 5 5 5 5 5 5 5 5 5 5 5 5 5 5 5 4 5 4 3 5 5 4 5 4 5 5 5 3 3 3 3 3 2 5 5 5 5 5 5
5 5 5 5 5 5 5 5 5 5 5 5 5 5 5 4 4 4 3 2 4 4 4 4 4 4 4 4 3 4 4 4 4 4 4 4 1 4 4
5 5 5 5 5 5 5 5 5 5 5 5 5 5 3 3 3 3 2 3 4 5 4 5 5 5 4 3 4 5 5 5 5 5 5 5 5 5
5 5 5 5 5 5 5 5 5 5 5 5 5 4 5 2 2 5 5 4 5 4 5 5 5 4 3 4 5 5 5 5 5 5 5 5 5
5 5 5 5 5 5 5 5 5 5 5 5 4 5 4 3 5 5 4 5 4 5 5 5 2 2 4 5 5 5 5 5 5 5 5 5
5 5 5 5 5 5 5 5 5 5 5 4 3 4 4 4 4 4 3 4 4 4 2 4 4 4 4 4 4 4 4 4 4 1 4
5 5 5 5 5 5 5 5 5 5 4 3 4 5 5 5 3 3 3 3 3 2 4 5 4 5 5 5 5 5 5 5 5 5
5 5 5 5 5 5 5 5 5 4 3 4 4 4 2 4 3 4 4 4 4 4 4 4 4 4 4 4 4 4 4 4 1
5 5 5 5 5 5 5 5 3 3 3 3 3 2 4 3 4 5 5 5 4 5 4 5 5 5 5 5 5 5 5 5
5 5 5 5 5 5 5 2 2 4 5 5 5 4 3 4 5 5 5 4 5 4 5 5 5 5 5 5 5 5 5
5 5 5 5 5 5 4 3 4 5 5 5 2 2 4 5 5 5 4 5 4 5 5 5 5 5 5 5 5 5
5 5 5 5 5 1 5 4 5 5 5 4 5 4 5 5 5 4 5 4 5 5 5 5 5 5 5 5 5
5 5 5 5 4 5 1 5 5 5 4 5 4 5 5 5 4 5 4 5 5 5 5 5 5 5 5 5
5 5 5 4 5 4 5 5 5 1 5 4 5 5 5 4 5 4 5 5 5 5 5 5 5 5 5
5 5 4 5 4 5 5 5 4 5 1 5 5 5 4 5 4 5 5 5 5 5 5 5 5 5
5 4 5 4 5 5 5 4 5 4 5 5 5 1 5 4 5 5 5 5 5 5 5 5 5
4 5 4 5 5 5 4 5 4 5 5 5 4 5 1 5 5 5 5 5 5 5 5 5
5 5 5 5 5 5 5 5 5 5 5 5 5 5 5 5 5 5 5 5 5 5 5
5 5 5 5 5 5 5 5 5 5 5 5 5 5 5 5 5 5 5 5 5 5
5 5 5 5 5 5 5 5 5 5 5 5 5 5 5 5 5 5 5 5 5
5 5 5 5 5 5 5 5 5 5 5 5 5 5 5 5 5 5 5 5
5 5 5 5 5 5 5 5 5 5 5 5 5 5 5 5 5 5 5
5 5 5 5 5 5 5 5 5 5 5 5 5 5 5 5 5 5
5 5 5 5 5 5 5 5 5 5 5 5 5 5 5 5 5
5 5 5 5 5 5 5 5 5 5 5 5 5 5 5 5
5 5 5 5 5 5 5 5 5 5 5 5 5 5 5
5 5 5 5 5 5 5 5 5 5 5 5 5 5
5 5 5 5 5 5 5 5 5 5 5 5 5
5 5 5 5 5 5 5 5 5 5 5 5
5 5 5 5 5 5 5 5 5 5 5
5 5 5 5 5 5 5 5 5 5
5 5 5 5 5 5 5 5 5
5 5 5 5 5 5 5 5
5 5 5 5 5 5 5
5 5 5 5 5 5
5 5 5 5 5
5 5 5 5
5 5 5
5 5
5

